presolving:
(round 1, fast)       196 del vars, 0 del conss, 0 add conss, 0 chg bounds, 0 chg sides, 0 chg coeffs, 0 upgd conss, 0 impls, 390 clqs
(round 2, exhaustive) 196 del vars, 0 del conss, 0 add conss, 0 chg bounds, 0 chg sides, 0 chg coeffs, 390 upgd conss, 0 impls, 390 clqs
   (1.0s) probing: 51/37830 (0.1%) - 0 fixings, 0 aggregations, 0 implications, 0 bound changes
   (1.0s) probing aborted: 50/50 successive totally useless probings
   Deactivated symmetry handling methods, since SCIP was built without symmetry detector (SYM=none).
presolving (3 rounds: 3 fast, 2 medium, 2 exhaustive):
 196 deleted vars, 0 deleted constraints, 0 added constraints, 0 tightened bounds, 0 added holes, 0 changed sides, 0 changed coefficients
 0 implications, 390 cliques
presolved problem has 38024 variables (37830 bin, 0 int, 0 impl, 194 cont) and 37832 constraints
    390 constraints of type <setppc>
  37442 constraints of type <linear>
Presolving Time: 2.00

 time | node  | left  |LP iter|LP it/n|mem/heur|mdpt |vars |cons |rows |cuts |sepa|confs|strbr|  dualbound   | primalbound  |  gap   | compl. 
p 2.0s|     1 |     0 |     0 |     - |  clique|   0 |  38k|  37k|  37k|   0 |  0 |   0 |   0 | 0.000000e+00 | 2.761957e+03 |    Inf | unknown
  4.0s|     1 |     0 |   584 |     - |   330M |   0 |  38k|  37k|  37k|   0 |  0 |  15 |   0 | 2.114973e+03 | 2.761957e+03 |  30.59%| unknown
  5.0s|     1 |     0 |   803 |     - |   338M |   0 |  38k|  37k|  37k| 144 |  1 |  15 |   0 | 2.229916e+03 | 2.761957e+03 |  23.86%| unknown
  6.0s|     1 |     0 |   886 |     - |   343M |   0 |  38k|  37k|  38k| 213 |  2 |  15 |   0 | 2.229947e+03 | 2.761957e+03 |  23.86%| unknown
  7.0s|     1 |     0 |   976 |     - |   349M |   0 |  38k|  37k|  38k| 254 |  3 |  15 |   0 | 2.239905e+03 | 2.761957e+03 |  23.31%| unknown
  8.0s|     1 |     0 |   999 |     - |   353M |   0 |  38k|  37k|  38k| 269 |  4 |  15 |   0 | 2.239905e+03 | 2.761957e+03 |  23.31%| unknown
  8.0s|     1 |     0 |  1017 |     - |   357M |   0 |  38k|  37k|  38k| 280 |  5 |  15 |   0 | 2.239905e+03 | 2.761957e+03 |  23.31%| unknown
  9.0s|     1 |     0 |  1029 |     - |   361M |   0 |  38k|  37k|  38k| 285 |  6 |  15 |   0 | 2.240379e+03 | 2.761957e+03 |  23.28%| unknown
 10.0s|     1 |     0 |  1064 |     - |   366M |   0 |  38k|  37k|  38k| 301 |  7 |  15 |   0 | 2.240644e+03 | 2.761957e+03 |  23.27%| unknown
 11.0s|     1 |     0 |  1091 |     - |   372M |   0 |  38k|  37k|  38k| 311 |  8 |  15 |   0 | 2.242437e+03 | 2.761957e+03 |  23.17%| unknown
 12.0s|     1 |     0 |  1102 |     - |   377M |   0 |  38k|  37k|  38k| 316 |  9 |  15 |   0 | 2.242437e+03 | 2.761957e+03 |  23.17%| unknown
 13.0s|     1 |     0 |  1166 |     - |   381M |   0 |  38k|  37k|  38k| 339 | 10 |  15 |   0 | 2.251923e+03 | 2.761957e+03 |  22.65%| unknown
 16.0s|     1 |     0 |  1182 |     - |   385M |   0 |  38k|  37k|  38k| 350 | 11 |  15 |   0 | 2.252358e+03 | 2.761957e+03 |  22.63%| unknown
 17.0s|     1 |     0 |  1199 |     - |   389M |   0 |  38k|  37k|  38k| 355 | 12 |  15 |   0 | 2.253046e+03 | 2.761957e+03 |  22.59%| unknown
 17.0s|     1 |     0 |  1207 |     - |   392M |   0 |  38k|  37k|  38k| 360 | 13 |  15 |   0 | 2.253488e+03 | 2.761957e+03 |  22.56%| unknown
 time | node  | left  |LP iter|LP it/n|mem/heur|mdpt |vars |cons |rows |cuts |sepa|confs|strbr|  dualbound   | primalbound  |  gap   | compl. 
 18.0s|     1 |     0 |  1232 |     - |   396M |   0 |  38k|  37k|  38k| 366 | 14 |  15 |   0 | 2.253714e+03 | 2.761957e+03 |  22.55%| unknown
 19.0s|     1 |     0 |  1251 |     - |   400M |   0 |  38k|  37k|  38k| 379 | 15 |  15 |   0 | 2.253714e+03 | 2.761957e+03 |  22.55%| unknown
 20.0s|     1 |     0 |  1260 |     - |   403M |   0 |  38k|  37k|  38k| 383 | 16 |  15 |   0 | 2.253714e+03 | 2.761957e+03 |  22.55%| unknown
 23.0s|     1 |     0 |  1282 |     - |   407M |   0 |  38k|  37k|  38k| 389 | 17 |  15 |   0 | 2.253714e+03 | 2.761957e+03 |  22.55%| unknown
 24.0s|     1 |     0 |  1299 |     - |   411M |   0 |  38k|  37k|  38k| 394 | 18 |  15 |   0 | 2.254623e+03 | 2.761957e+03 |  22.50%| unknown
 25.0s|     1 |     0 |  1304 |     - |   414M |   0 |  38k|  37k|  38k| 398 | 19 |  15 |   0 | 2.254623e+03 | 2.761957e+03 |  22.50%| unknown
 26.0s|     1 |     0 |  1309 |     - |   418M |   0 |  38k|  37k|  38k| 402 | 20 |  15 |   0 | 2.254623e+03 | 2.761957e+03 |  22.50%| unknown
 27.0s|     1 |     0 |  1310 |     - |   418M |   0 |  38k|  37k|  38k| 403 | 22 |  15 |   0 | 2.254623e+03 | 2.761957e+03 |  22.50%| unknown
  121s|     1 |     2 |  9233 |     - |   426M |   0 |  38k|  37k|  38k| 403 | 24 |  19 |  37 | 2.254633e+03 | 2.761957e+03 |  22.50%| unknown

SCIP Status        : solving was interrupted [time limit reached]
Solving Time (sec) : 600.00
Solving Nodes      : 15
Primal Bound       : +2.76195736004717e+03 (1 solutions)
Dual Bound         : +2.25463334506559e+03
Gap                : 22.50 %
Trying to solve problem with MTZ Solver Method...
Starting Solver, time limit setted to 10 minutes
Route:  [[0, 1], [1, 2], [2, 3], [3, 4], [4, 5], [5, 6], [6, 7], [7, 8], [8, 9], [9, 10], [10, 11], [11, 12], [12, 24], [13, 26], [14, 13], [15, 14], [16, 15], [17, 16], [18, 17], [19, 18], [20, 19], [21, 20], [22, 21], [23, 22], [24, 23], [25, 0], [26, 27], [27, 28], [28, 29], [29, 30], [30, 31], [31, 32], [32, 45], [33, 44], [34, 33], [35, 34], [36, 35], [37, 36], [38, 37], [39, 52], [40, 39], [41, 40], [42, 41], [43, 42], [44, 43], [45, 46], [46, 47], [47, 48], [48, 49], [49, 50], [50, 51], [51, 38], [52, 53], [53, 54], [54, 55], [55, 56], [56, 57], [57, 70], [58, 59], [59, 60], [60, 61], [61, 62], [62, 63], [63, 64], [64, 77], [65, 66], [66, 67], [67, 68], [68, 69], [69, 58], [70, 71], [71, 72], [72, 73], [73, 74], [74, 75], [75, 88], [76, 89], [77, 76], [78, 65], [79, 78], [80, 79], [81, 80], [82, 81], [83, 82], [84, 83], [85, 84], [86, 85], [87, 86], [88, 87], [89, 90], [90, 103], [91, 104], [92, 91], [93, 92], [94, 93], [95, 94], [96, 95], [97, 96], [98, 97], [99, 98], [100, 99], [101, 100], [102, 101], [103, 102], [104, 105], [105, 106], [106, 107], [107, 108], [108, 109], [109, 110], [110, 111], [111, 112], [112, 113], [113, 126], [114, 167], [115, 114], [116, 115], [117, 130], [118, 117], [119, 118], [120, 119], [121, 120], [122, 121], [123, 122], [124, 123], [125, 124], [126, 125], [127, 129], [128, 127], [129, 116], [130, 131], [131, 132], [132, 133], [133, 146], [134, 135], [135, 136], [136, 137], [137, 138], [138, 139], [139, 140], [140, 153], [141, 128], [142, 141], [143, 134], [144, 143], [145, 144], [146, 147], [147, 148], [148, 149], [149, 150], [150, 151], [151, 152], [152, 165], [153, 154], [154, 155], [155, 142], [156, 157], [157, 145], [158, 171], [159, 158], [160, 159], [161, 160], [162, 161], [163, 162], [164, 163], [165, 164], [166, 179], [167, 166], [168, 25], [169, 156], [170, 169], [171, 170], [172, 173], [173, 174], [174, 175], [175, 176], [176, 177], [177, 178], [178, 168], [179, 180], [180, 181], [181, 194], [182, 172], [183, 182], [184, 183], [185, 184], [186, 185], [187, 186], [188, 187], [189, 188], [190, 189], [191, 190], [192, 191], [193, 192], [194, 193]]
An Otimal Solution was found, yay!
Objective value: 2762.0
Problem solved in 10517 iterations
Problem solved in 15 nodes
Final Route Configuration succesfully created at:
data/routes/rat195.csv
